Nb of jobs, Nb of Machines, Time seed, Machine seed, Upper bound, Lower bound
3,10,-1,-1,-1,-1
Times
75,58,45,53,1,1,57,27,70,45
51,60,18,53,25,73,80,30,53,70
41,44,69,7,34,11,89,9,32,69
Machines
7,8,1,10,5,4,6,9,3,2
4,10,2,7,5,3,6,1,8,9
6,8,2,9,1,7,4,3,5,10
